1 1 -2 0
1 3 4 0
1 -5 -6 0
1 7 -8 0
1 -7 -9 0
1 -7 -10 0
1 -11 8 0
1 12 -8 0
1 -9 -11 0
1 13 -14 0
1 15 -16 0
1 -15 -17 0
1 -18 -8 0
1 19 -8 0
1 -20 -21 0
1 -17 -11 0
1 17 22 0
1 23 -24 0
1 -25 26 0
1 -27 28 0
1 29 -27 0
1 30 -25 0
1 -4 31 0
1 32 33 0
1 33 34 0
1 -33 -35 0
1 -36 32 0
1 34 13 0
1 -34 -35 0
1 35 8 0
1 -22 24 0
1 -37 22 0
1 38 -32 0
1 6 39 0
1 -6 -40 0
